NAME : ST69B.771.tour
COMMENT : Cost = 0_771
COMMENT : Found by LKH [Keld Helsgaun] Sun Sep 17 16:52:40 2017
TYPE : TOUR
DIMENSION : 69
TOUR_SECTION
1
47
37
57
50
55
64
63
11
48
53
66
33
21
34
61
45
25
39
60
40
46
27
9
67
44
30
20
14
28
8
7
2
4
18
42
3
32
26
49
54
19
24
15
56
52
5
10
51
59
12
17
43
41
6
65
62
22
58
35
68
31
69
29
13
38
23
16
36
-1
EOF
